51
30
0 31 32 33 34 38 39 40 41 42 43 46 47 48 49
1 31 32 33 34 36 38 39 40 41 42 48 49
2 31 32 33 34 35 38 41 42 46 48 49
3 31 32 33 34 37 38 39 40 42 43 44 46 48
4 32 33 34 38 40 41 48 49
5 30 31 32 33 34 40 41 42 44 46 48
6 31 32 33 38 41 42 43 46 47
7 31 33 34 38 40 42 46 48
8 30 31 33 34 39 40 41 42 43 44 46 48 49
9 31 41 42 46 47
10 33 38 39 40 41 46 49
11 32 33 34 40 41 42 46 47 48 49
12 33 34 39 41 42 46 48 49
13 30 31 32 34 38 40 41 42 44 46 48 49
14 32 33 37 39 44 46 49
15 30 31 37 38 39 41 42 43 47 49
16 31 34 38 40 41 42 43 46 48
17 33 34 37 39 44 49
18 32 39 41 47 50
19 33 34 38 40 44 49
20 31 34 41 43 46 48 49
21 30 31 34 38 39 42 44 47 49
22 32 34 38 49
23 32 33 38 39 42 44 48
24 30 32 37 42 46
25 39 40
26 40 42 45 47
27 33
28 38 41
29 49
